p edge 110 361
e 1 2
e 1 3
e 1 4
e 1 31
e 1 32
e 1 33
e 1 34
e 1 35
e 1 36
e 1 37
e 1 110
e 2 3
e 2 4
e 2 5
e 2 6
e 2 7
e 2 8
e 2 9
e 2 10
e 2 11
e 2 12
e 2 13
e 2 14
e 2 15
e 2 16
e 2 17
e 2 18
e 2 19
e 2 20
e 2 21
e 2 22
e 2 23
e 2 24
e 2 25
e 2 26
e 2 27
e 2 28
e 2 29
e 2 31
e 2 35
e 2 36
e 2 37
e 2 38
e 2 39
e 2 41
e 2 42
e 2 44
e 2 45
e 2 47
e 2 48
e 2 49
e 2 50
e 2 51
e 2 53
e 2 54
e 2 55
e 2 56
e 2 57
e 2 59
e 2 60
e 2 61
e 2 62
e 2 63
e 2 64
e 2 66
e 2 67
e 2 68
e 2 74
e 2 75
e 2 77
e 2 78
e 2 79
e 2 81
e 2 83
e 2 84
e 2 86
e 2 88
e 2 89
e 2 90
e 2 92
e 2 94
e 2 95
e 2 97
e 2 100
e 2 101
e 2 102
e 2 103
e 2 104
e 2 105
e 2 106
e 2 107
e 2 108
e 2 109
e 3 31
e 3 35
e 3 36
e 3 37
e 3 110
e 4 5
e 4 6
e 4 7
e 4 8
e 4 9
e 4 10
e 4 11
e 4 12
e 4 13
e 4 14
e 4 15
e 4 16
e 4 17
e 4 18
e 4 19
e 4 20
e 4 21
e 4 22
e 4 23
e 4 24
e 4 25
e 4 26
e 4 31
e 4 38
e 4 39
e 4 41
e 4 42
e 4 44
e 4 45
e 4 47
e 4 48
e 4 49
e 4 50
e 4 51
e 4 53
e 4 54
e 4 55
e 4 56
e 4 57
e 4 59
e 4 60
e 4 61
e 4 62
e 4 63
e 4 64
e 4 66
e 4 67
e 4 68
e 4 74
e 4 75
e 4 77
e 4 78
e 4 79
e 4 81
e 4 83
e 4 84
e 4 86
e 4 88
e 4 89
e 4 90
e 4 92
e 4 100
e 4 101
e 4 102
e 4 103
e 4 104
e 4 105
e 4 106
e 4 107
e 4 108
e 5 6
e 5 31
e 5 100
e 6 7
e 6 8
e 6 9
e 6 31
e 6 39
e 6 41
e 6 42
e 6 44
e 6 45
e 6 47
e 6 48
e 6 49
e 6 50
e 6 101
e 6 102
e 7 31
e 7 44
e 7 101
e 8 9
e 8 10
e 8 11
e 8 12
e 8 13
e 8 14
e 8 15
e 8 16
e 8 31
e 8 48
e 8 49
e 8 50
e 8 51
e 8 53
e 8 54
e 8 55
e 8 56
e 8 57
e 8 59
e 8 60
e 8 61
e 8 62
e 8 63
e 8 64
e 8 66
e 8 67
e 8 68
e 8 69
e 8 70
e 8 74
e 8 75
e 8 77
e 8 102
e 8 103
e 8 104
e 8 105
e 8 110
e 9 31
e 9 50
e 9 102
e 10 11
e 10 31
e 10 56
e 10 103
e 11 31
e 11 56
e 11 103
e 12 31
e 12 68
e 12 110
e 13 14
e 13 31
e 13 63
e 13 104
e 14 31
e 14 63
e 14 104
e 15 16
e 15 31
e 15 74
e 15 105
e 16 31
e 16 74
e 16 105
e 17 18
e 17 19
e 17 31
e 17 81
e 17 106
e 18 19
e 18 31
e 18 81
e 18 106
e 19 31
e 19 106
e 20 31
e 20 83
e 21 22
e 21 23
e 21 31
e 21 86
e 21 107
e 22 23
e 22 31
e 22 86
e 22 107
e 23 31
e 23 107
e 24 31
e 24 88
e 25 26
e 25 31
e 25 92
e 25 108
e 26 31
e 26 108
e 27 31
e 27 94
e 28 29
e 28 31
e 28 97
e 28 109
e 29 31
e 29 109
e 30 31
e 30 99
e 31 32
e 31 33
e 31 34
e 31 35
e 31 36
e 31 37
e 31 38
e 31 39
e 31 41
e 31 42
e 31 44
e 31 45
e 31 47
e 31 48
e 31 49
e 31 50
e 31 51
e 31 53
e 31 54
e 31 55
e 31 56
e 31 57
e 31 59
e 31 60
e 31 61
e 31 62
e 31 63
e 31 64
e 31 66
e 31 67
e 31 68
e 31 74
e 31 75
e 31 77
e 31 78
e 31 79
e 31 81
e 31 83
e 31 84
e 31 86
e 31 88
e 31 89
e 31 90
e 31 92
e 31 94
e 31 95
e 31 97
e 31 99
e 31 100
e 31 101
e 31 102
e 31 103
e 31 104
e 31 105
e 31 106
e 31 107
e 31 108
e 31 109
e 33 34
e 36 37
e 43 110
e 69 110
e 70 110
e 71 110
e 72 110
e 73 110
